c n orig vars 121
p cnf 233 448
-171 0
122 -150 0
122 -125 0
-122 150 125 0
123 -200 0
123 -210 0
-123 200 210 0
124 -199 0
124 -147 0
-124 199 147 0
125 -233 0
125 -157 0
-125 233 157 0
126 -12 0
126 -11 0
-126 12 11 0
127 -231 0
127 -154 0
-127 231 154 0
128 -129 0
128 -25 0
128 -227 0
-128 129 25 227 0
129 -218 0
129 -131 0
-129 218 131 0
130 -229 0
130 -118 0
130 -159 0
-130 229 118 159 0
131 -26 0
131 -146 0
-131 26 146 0
132 -58 0
132 -57 0
-132 58 57 0
133 -227 0
133 -202 0
133 -197 0
-133 227 202 197 0
134 -56 0
134 -133 0
134 -55 0
-134 56 133 55 0
135 -59 0
135 -61 0
135 -60 0
-135 59 61 60 0
136 -134 0
136 -135 0
-136 134 135 0
-137 122 0
-137 123 0
-137 124 0
137 -122 -123 -124 0
138 -137 0
138 -136 0
-138 137 136 0
139 -97 0
139 -27 0
139 -96 0
139 -99 0
-139 97 27 96 99 0
140 -54 0
140 -139 0
-140 54 139 0
141 -158 0
141 -144 0
141 -143 0
-141 158 144 143 0
142 -167 0
142 -168 0
-142 167 168 0
143 -169 0
143 -170 0
-143 169 170 0
144 -20 0
144 -50 0
144 -43 0
-144 20 50 43 0
145 -20 0
145 -52 0
-145 20 52 0
146 -120 0
146 -121 0
146 -119 0
146 -145 0
146 -148 0
-146 120 121 119 145 148 0
147 -150 0
147 -140 0
-147 150 140 0
148 -164 0
148 -165 0
148 -166 0
-148 164 165 166 0
149 -109 0
149 -108 0
149 -107 0
149 -106 0
-149 109 108 107 106 0
150 -31 0
150 -32 0
-150 31 32 0
151 -20 0
151 -46 0
151 -51 0
-151 20 46 51 0
152 -162 0
152 -163 0
-152 162 163 0
153 -223 0
153 -222 0
153 -161 0
-153 223 222 161 0
154 -112 0
154 -113 0
154 -119 0
154 -151 0
154 -152 0
-154 112 113 119 151 152 0
-155 92 0
-155 95 0
155 -92 -95 0
156 -20 0
156 -45 0
-156 20 45 0
157 -158 0
157 -155 0
157 -119 0
157 -156 0
157 -153 0
-157 158 155 119 156 153 0
158 -183 0
158 -100 0
-158 183 100 0
159 -114 0
159 -115 0
159 -119 0
159 -160 0
159 -142 0
-159 114 115 119 160 142 0
160 -20 0
160 -49 0
-160 20 49 0
-161 66 0
-161 190 0
161 -66 -190 0
-162 192 0
-162 178 0
162 -192 -178 0
-163 111 0
-163 176 0
163 -111 -176 0
-164 191 0
-164 209 0
164 -191 -209 0
-165 181 0
-165 111 0
165 -181 -111 0
-166 212 0
-166 103 0
166 -212 -103 0
-167 184 0
-167 179 0
167 -184 -179 0
-168 94 0
-168 173 0
168 -94 -173 0
-169 185 0
-169 206 0
169 -185 -206 0
-170 208 0
-170 102 0
170 -208 -102 0
171 -138 0
171 -182 0
-171 138 182 0
172 -78 0
172 -81 0
172 -76 0
172 -73 0
-172 78 81 76 73 0
173 -80 0
173 -75 0
173 -74 0
173 -77 0
-173 80 75 74 77 0
174 -78 0
174 -81 0
-174 78 81 0
175 -84 0
175 -111 0
-175 84 111 0
176 -78 0
176 -81 0
176 -64 0
176 -65 0
176 -67 0
-176 78 81 64 65 67 0
177 -78 0
177 -81 0
177 -68 0
177 -69 0
177 -74 0
177 -77 0
-177 78 81 68 69 74 77 0
178 -78 0
178 -81 0
178 -64 0
178 -65 0
178 -66 0
178 -67 0
-178 78 81 64 65 66 67 0
179 -80 0
179 -75 0
179 -74 0
179 -77 0
179 -72 0
-179 80 75 74 77 72 0
180 -78 0
180 -81 0
180 -66 0
-180 78 81 66 0
181 -78 0
181 -81 0
181 -70 0
181 -71 0
181 -62 0
181 -63 0
181 -38 0
-181 78 81 70 71 62 63 38 0
-182 128 0
-182 217 0
-182 221 0
182 -128 -217 -221 0
-183 21 0
-183 22 0
183 -21 -22 0
184 -109 0
184 -108 0
184 -105 0
184 -104 0
184 -103 0
-184 109 108 105 104 103 0
185 -109 0
185 -108 0
185 -102 0
185 -111 0
185 -103 0
-185 109 108 102 111 103 0
186 -109 0
186 -108 0
186 -110 0
186 -84 0
186 -111 0
186 -103 0
-186 109 108 110 84 111 103 0
187 -109 0
187 -108 0
187 -85 0
187 -82 0
187 -114 0
187 -115 0
-187 109 108 85 82 114 115 0
188 -109 0
188 -108 0
188 -83 0
188 -88 0
188 -111 0
188 -103 0
188 -89 0
-188 109 108 83 88 111 103 89 0
189 -190 0
189 -111 0
-189 190 111 0
190 -109 0
190 -108 0
190 -83 0
190 -88 0
190 -89 0
-190 109 108 83 88 89 0
191 -109 0
191 -108 0
191 -86 0
191 -87 0
191 -90 0
191 -91 0
191 -89 0
-191 109 108 86 87 90 91 89 0
192 -109 0
192 -108 0
192 -79 0
192 -103 0
-192 109 108 79 103 0
193 -110 0
193 -84 0
193 -103 0
-193 110 84 103 0
194 -228 0
194 -141 0
-194 228 141 0
195 -16 0
195 -15 0
-195 16 15 0
196 -226 0
196 -132 0
-196 226 132 0
197 -196 0
197 -203 0
-197 196 203 0
198 -20 0
198 -47 0
-198 20 47 0
199 -155 0
199 -27 0
199 -28 0
199 -119 0
199 -198 0
199 -201 0
-199 155 27 28 119 198 201 0
200 -195 0
200 -194 0
-200 195 194 0
-201 149 0
-201 172 0
201 -149 -172 0
202 -126 0
202 -127 0
-202 126 127 0
203 -23 0
203 -24 0
-203 23 24 0
204 -20 0
204 -19 0
-204 20 19 0
-205 187 0
-205 177 0
205 -187 -177 0
206 -35 0
206 -42 0
-206 35 42 0
207 -41 0
207 -40 0
207 -38 0
-207 41 40 38 0
208 -78 0
208 -81 0
208 -66 0
-208 78 81 66 0
209 -78 0
209 -81 0
209 -70 0
209 -71 0
209 -66 0
209 -37 0
209 -36 0
209 -62 0
209 -63 0
209 -38 0
-209 78 81 70 71 66 37 36 62 63 38 0
210 -33 0
210 -29 0
-210 33 29 0
211 -118 0
211 -30 0
211 -119 0
211 -204 0
211 -205 0
-211 118 30 119 204 205 0
212 -70 0
212 -71 0
212 -37 0
212 -36 0
212 -62 0
212 -63 0
212 -38 0
-212 70 71 37 36 62 63 38 0
213 -39 0
213 -34 0
213 -67 0
-213 39 34 67 0
-214 175 0
-214 101 0
214 -175 -101 0
-215 180 0
-215 193 0
215 -180 -193 0
-216 213 0
-216 186 0
216 -213 -186 0
217 -219 0
217 -130 0
-217 219 130 0
218 -18 0
218 -17 0
-218 18 17 0
219 -14 0
219 -13 0
-219 14 13 0
220 -98 0
220 -93 0
220 -230 0
-220 98 93 230 0
221 -220 0
221 -211 0
-221 220 211 0
-222 174 0
-222 189 0
222 -174 -189 0
-223 207 0
-223 188 0
223 -207 -188 0
224 -216 0
224 -215 0
224 -214 0
-224 216 215 214 0
225 -20 0
225 -48 0
-225 20 48 0
226 -118 0
226 -225 0
226 -224 0
-226 118 225 224 0
227 -2 0
227 -1 0
227 -116 0
227 -117 0
-227 2 1 116 117 0
228 -7 0
228 -10 0
228 -9 0
-228 7 10 9 0
229 -5 0
229 -8 0
-229 5 8 0
230 -3 0
230 -6 0
-230 3 6 0
231 -53 0
231 -4 0
-231 53 4 0
232 -44 0
232 -27 0
-232 44 27 0
233 -54 0
233 -232 0
-233 54 232 0
